CPXPARAM_MIP_Tolerances_MIPGap                   0
Tried aggregator 1 time.
MIP Presolve eliminated 98 rows and 8 columns.
MIP Presolve modified 195 coefficients.
Reduced MIP has 348 rows, 229 columns, and 948 nonzeros.
Reduced MIP has 139 binaries, 0 generals, 0 SOSs, and 0 indicators.
Presolve time = 0.00 sec. (0.72 ticks)
Found incumbent of value 21.000000 after 0.02 sec. (2.26 ticks)
Probing time = 0.00 sec. (0.79 ticks)
Tried aggregator 1 time.
Reduced MIP has 348 rows, 229 columns, and 948 nonzeros.
Reduced MIP has 139 binaries, 0 generals, 0 SOSs, and 0 indicators.
Presolve time = 0.00 sec. (0.55 ticks)
Probing time = 0.00 sec. (0.71 ticks)
Clique table members: 250.
MIP emphasis: balance optimality and feasibility.
MIP search method: dynamic search.
Parallel mode: deterministic, using up to 8 threads.
Root relaxation solution time = 0.00 sec. (0.92 ticks)

        Nodes                                         Cuts/
   Node  Left     Objective  IInf  Best Integer    Best Bound    ItCnt     Gap

*     0+    0                           21.0000        8.0000            61.90%
*     0+    0                           18.0000        8.0000            55.56%
      0     0        8.0000     3       18.0000        8.0000       56   55.56%
      0     0       11.0000     2       18.0000      Cuts: 35       81   38.89%
*     0+    0                           11.0000       11.0000             0.00%
      0     0        cutoff             11.0000       11.0000       81    0.00%
Elapsed time = 0.11 sec. (7.55 ticks, tree = 0.01 MB, solutions = 3)

Clique cuts applied:  22
Implied bound cuts applied:  6
Mixed integer rounding cuts applied:  2

Root node processing (before b&c):
  Real time             =    0.11 sec. (7.57 ticks)
Parallel b&c, 8 threads:
  Real time             =    0.00 sec. (0.00 ticks)
  Sync time (average)   =    0.00 sec.
  Wait time (average)   =    0.00 sec.
                          ------------
Total (root+branch&cut) =    0.11 sec. (7.57 ticks)
